instances/knapsack/knapsack_interdiction/knapsack_20_10_4.kp
42
20
1938

180 18.0 280 49.29
682 68.0 782 154.67
272 27.0 372 56.59
531 53.0 631 111.01
518 52.0 618 106.16
796 80.0 896 162.75
775 78.0 875 88.34
312 31.0 412 64.17
696 70.0 796 121.84
646 65.0 746 123.12
366 37.0 466 71.7
901 90.0 1001 134.02
65 6.0 165 27.02
782 78.0 882 100.98
232 23.0 332 43.43
592 59.0 692 126.19
169 17.0 269 36.02
499 50.0 599 90.25
542 54.0 642 117.02
135 14.0 235 41.22

42
[1794, 948, 4202, 1991, 995, 6609, 2137, 4514, 4526, 4153]

[[13, 11, 32, 60, 17, 22, 68, 50, 46, 41, 7, 74, 26, 2, 60, 81, 46, 48, 59, 56] [16, 1, 7, 41, 3, 17, 5, 4, 3, 4, 1, 36, 2, 22, 44, 10, 17, 1, 14, 8] [26, 87, 198, 8, 201, 26, 16, 34, 200, 56, 21, 190, 116, 157, 22, 165, 138, 76, 136, 48] [71, 26, 61, 81, 3, 58, 31, 50, 50, 30, 90, 27, 81, 55, 64, 69, 40, 89, 6, 66] [15, 35, 38, 20, 4, 11, 37, 23, 10, 34, 45, 2, 39, 19, 40, 28, 19, 34, 29, 27] [0, 184, 183, 98, 71, 41, 213, 154, 263, 4, 287, 122, 248, 286, 79, 163, 270, 272, 192, 72] [49, 28, 70, 64, 29, 35, 66, 44, 21, 63, 56, 98, 3, 39, 50, 28, 94, 57, 31, 5] [223, 219, 100, 207, 8, 86, 59, 182, 175, 167, 140, 54, 196, 13, 11, 93, 214, 23, 225, 24] [201, 13, 141, 203, 127, 157, 216, 65, 207, 138, 31, 14, 154, 3, 104, 6, 150, 107, 74, 166] [12, 26, 115, 145, 4, 89, 54, 188, 134, 117, 188, 187, 68, 94, 90, 50, 74, 185, 72, 66]]

[[87, 664, 912, 748, 690, 522, 263, 338, 116, 99, 997, 511, 213, 379, 983, 377, 37, 616, 126, 296] [440, 678, 532, 207, 890, 928, 291, 260, 948, 842, 722, 673, 253, 66, 764, 204, 757, 559, 794, 227] [376, 774, 236, 503, 882, 680, 443, 724, 924, 682, 218, 649, 117, 2, 532, 644, 733, 919, 426, 43] [475, 164, 828, 696, 686, 718, 67, 238, 232, 671, 913, 891, 305, 159, 179, 397, 233, 764, 786, 556] [398, 564, 82, 645, 664, 550, 993, 530, 154, 128, 208, 815, 995, 552, 594, 874, 995, 125, 80, 337] [771, 661, 55, 862, 861, 247, 534, 507, 111, 657, 853, 112, 48, 721, 519, 451, 984, 974, 813, 274] [765, 263, 593, 816, 23, 425, 696, 909, 57, 147, 567, 882, 346, 859, 433, 981, 18, 168, 759, 980] [871, 705, 395, 890, 489, 987, 570, 543, 243, 365, 649, 292, 644, 77, 283, 887, 900, 738, 417, 342] [342, 724, 874, 277, 600, 654, 673, 474, 594, 400, 536, 551, 203, 328, 234, 938, 979, 685, 632, 617] [27, 733, 895, 846, 53, 591, 606, 195, 175, 585, 29, 552, 888, 873, 631, 483, 552, 518, 941, 210]]
